(set-logic QF_SLIA)
(declare-fun var0 () String)
(assert (str.in_re var0 (re.++ ((_ re.loop 17 975) (re.++ (re.union (str.to_re "Iw") (re.union (str.to_re "B!8") (re.union (str.to_re "\\-") (str.to_re "@_")))) (re.++ (re.union (str.to_re "T") (re.union (str.to_re "n:") (re.union (str.to_re "|7a") (str.to_re "T")))) (re.++ (re.union (str.to_re "Y") (re.union (str.to_re "EI") (re.union (str.to_re "A2") (str.to_re "F")))) (re.union (str.to_re "=c") (re.union (str.to_re "f<") (re.union (str.to_re "K@") (str.to_re "$f2")))))))) (re.++ ((_ re.loop 19 655) (re.++ (re.union (str.to_re "5-Z") (re.union (str.to_re "T") (re.union (str.to_re "a:") (str.to_re "qt")))) (re.++ (re.union (str.to_re "l") (re.union (str.to_re "HB>") (re.union (str.to_re "VH") (str.to_re "/Mg")))) (re.++ (re.union (str.to_re "&?f") (re.union (str.to_re "wO") (re.union (str.to_re "f+^") (str.to_re "v8")))) (re.union (str.to_re "D)-") (re.union (str.to_re "%") (re.union (str.to_re "tX") (str.to_re "w")))))))) (re.++ ((_ re.loop 15 476) (re.++ (re.union (str.to_re "s") (re.union (str.to_re "C>") (re.union (str.to_re ";y&") (str.to_re "`")))) (re.++ (re.union (str.to_re "*") (re.union (str.to_re "x") (re.union (str.to_re ">'p") (str.to_re "Ev")))) (re.++ (re.union (str.to_re "}^") (re.union (str.to_re ".") (re.union (str.to_re "f") (str.to_re "-a")))) (re.union (str.to_re "j*$") (re.union (str.to_re ")tN") (re.union (str.to_re "C") (str.to_re "m")))))))) ((_ re.loop 6 325) (re.++ (re.union (str.to_re "Z") (re.union (str.to_re "@") (re.union (str.to_re "0k") (str.to_re "<")))) (re.++ (re.union (str.to_re "@") (re.union (str.to_re "ca") (re.union (str.to_re "&") (str.to_re "JL~")))) (re.++ (re.union (str.to_re "S\u0022>") (re.union (str.to_re "}") (re.union (str.to_re "zG`") (str.to_re "]")))) (re.union (str.to_re "W") (re.union (str.to_re "84") (re.union (str.to_re "_cK") (str.to_re "rX")))))))))))))
(assert (not (str.in_re var0 (re.++ ((_ re.loop 2 425) (re.++ (re.union (str.to_re "x{") (re.union (str.to_re "-D") (re.union (str.to_re "q0") (str.to_re "H")))) (re.++ (re.union (str.to_re "f]") (re.union (str.to_re "eKl") (re.union (str.to_re "S") (str.to_re "w")))) (re.++ (re.union (str.to_re "=") (re.union (str.to_re "L1d") (re.union (str.to_re "ekN") (str.to_re "(g")))) (re.union (str.to_re "sy") (re.union (str.to_re "Jy") (re.union (str.to_re "66") (str.to_re "^13")))))))) (re.++ ((_ re.loop 20 912) (re.++ (re.union (str.to_re "}") (re.union (str.to_re "=A;") (re.union (str.to_re "I%H") (str.to_re "U@K")))) (re.++ (re.union (str.to_re "CR") (re.union (str.to_re ":") (re.union (str.to_re "J") (str.to_re "dn&")))) (re.++ (re.union (str.to_re "o") (re.union (str.to_re "?R") (re.union (str.to_re ".y") (str.to_re "Cu")))) (re.union (str.to_re ";") (re.union (str.to_re "6") (re.union (str.to_re "?") (str.to_re "D|r")))))))) (re.++ ((_ re.loop 4 230) (re.++ (re.union (str.to_re "(Uo") (re.union (str.to_re "G!") (re.union (str.to_re ",%") (str.to_re "@")))) (re.++ (re.union (str.to_re "3w&") (re.union (str.to_re "S") (re.union (str.to_re "I") (str.to_re "n3\\")))) (re.++ (re.union (str.to_re "qY") (re.union (str.to_re "6*") (re.union (str.to_re "t") (str.to_re "vZW")))) (re.union (str.to_re "2,`") (re.union (str.to_re "O]N") (re.union (str.to_re "\u0022") (str.to_re "\u0022")))))))) ((_ re.loop 2 157) (re.++ (re.union (str.to_re "@") (re.union (str.to_re "TS{") (re.union (str.to_re "41u") (str.to_re "~g")))) (re.++ (re.union (str.to_re "4") (re.union (str.to_re "g@") (re.union (str.to_re "-'7") (str.to_re "{Vw")))) (re.++ (re.union (str.to_re "b}") (re.union (str.to_re "%h=") (re.union (str.to_re "!") (str.to_re ".?")))) (re.union (str.to_re "_{") (re.union (str.to_re "B!") (re.union (str.to_re "whg") (str.to_re ":|"))))))))))))))
(assert (not (str.in_re var0 (re.++ (re.* re.allchar) (re.++ (re.union (str.to_re "<") (re.union (str.to_re ">") (re.union (str.to_re "'") (re.union (str.to_re "\u0022") (str.to_re "&"))))) (re.* re.allchar))))))
(assert (<= 50 (str.len var0)))
(check-sat)
(get-model)
